<number of tasks>
28

<cycle time>
342

<task times>
1 70
2 59
3 33
4 6
5 1
6 27
7 17
8 62
9 31
10 53
11 21
12 19
13 108
14 52
15 5
16 8
17 97
18 8
19 47
20 67
21 17
22 8
23 3
24 21
25 107
26 3
27 2
28 72

<precedence relations>
1,2
1,3
1,4
1,5
1,8
1,19
1,21
1,22
1,23
1,24
1,26
2,6
2,17
3,28
4,28
5,28
6,7
7,18
8,9
9,10
10,11
10,12
11,15
12,13
13,14
13,16
14,28
15,28
16,28
17,28
18,28
19,20
20,28
21,28
22,28
23,28
24,25
25,28
26,27
27,28

<setup times forward>
1,5:3
1,21:7
2,5:3
2,9:7
2,10:7
2,11:7
2,12:7
2,13:7
2,14:3
2,15:3
2,16:3
2,17:3
2,20:7
2,21:7
2,25:3
3,5:3
3,7:7
3,9:7
3,10:7
3,11:7
3,12:7
3,13:7
3,14:3
3,15:3
3,16:3
3,17:3
3,18:7
3,20:7
3,21:7
3,25:3
3,28:3
4,5:3
4,7:7
4,9:7
4,10:7
4,11:7
4,12:7
4,13:7
4,14:3
4,15:3
4,16:3
4,17:3
4,18:7
4,20:7
4,21:7
4,25:3
4,28:3
5,2:3
5,3:3
5,4:3
5,6:3
5,7:10
5,8:3
5,9:10
5,10:10
5,11:10
5,12:10
5,13:10
5,18:10
5,19:3
5,20:10
5,21:10
5,22:3
5,23:3
5,24:3
5,26:3
5,27:3
6,5:3
6,7:7
6,9:7
6,10:7
6,11:7
6,12:7
6,13:7
6,14:3
6,15:3
6,16:3
6,17:3
6,20:7
6,21:7
6,25:3
7,3:7
7,4:7
7,5:10
7,8:7
7,14:10
7,15:10
7,16:10
7,17:10
7,19:7
7,22:7
7,23:7
7,24:7
7,25:10
7,26:7
7,27:7
8,5:3
8,7:7
8,9:7
8,17:3
8,18:7
8,20:7
8,21:7
8,25:3
9,2:7
9,3:7
9,4:7
9,5:10
9,6:7
9,17:10
9,19:7
9,22:7
9,23:7
9,24:7
9,25:10
9,26:7
9,27:7
10,2:7
10,3:7
10,4:7
10,5:10
10,6:7
10,17:10
10,19:7
10,22:7
10,23:7
10,24:7
10,25:10
10,26:7
10,27:7
11,2:7
11,3:7
11,4:7
11,5:10
11,6:7
11,14:10
11,15:10
11,16:10
11,17:10
11,19:7
11,22:7
11,23:7
11,24:7
11,25:10
11,26:7
11,27:7
12,2:7
12,3:7
12,4:7
12,5:10
12,6:7
12,15:10
12,17:10
12,19:7
12,22:7
12,23:7
12,24:7
12,25:10
12,26:7
12,27:7
13,2:7
13,3:7
13,4:7
13,5:10
13,6:7
13,14:10
13,15:10
13,16:10
13,17:10
13,19:7
13,22:7
13,23:7
13,24:7
13,25:10
13,26:7
13,27:7
14,2:3
14,3:3
14,4:3
14,6:3
14,7:10
14,11:10
14,18:10
14,19:3
14,20:10
14,21:10
14,22:3
14,23:3
14,24:3
14,26:3
14,27:3
15,2:3
15,3:3
15,4:3
15,6:3
15,7:10
15,12:10
15,13:10
15,18:10
15,19:3
15,20:10
15,21:10
15,22:3
15,23:3
15,24:3
15,26:3
15,27:3
16,2:3
16,3:3
16,4:3
16,6:3
16,7:10
16,11:10
16,18:10
16,19:3
16,20:10
16,21:10
16,22:3
16,23:3
16,24:3
16,26:3
16,27:3
17,3:3
17,4:3
17,6:3
17,7:10
17,8:3
17,9:10
17,10:10
17,11:10
17,12:10
17,13:10
17,18:10
17,19:3
17,20:10
17,21:10
17,22:3
17,23:3
17,24:3
17,26:3
17,27:3
18,3:7
18,4:7
18,5:10
18,8:7
18,14:10
18,15:10
18,16:10
18,17:10
18,19:7
18,22:7
18,23:7
18,24:7
18,25:10
18,26:7
18,27:7
18,28:10
19,5:3
19,7:7
19,9:7
19,10:7
19,11:7
19,12:7
19,13:7
19,14:3
19,15:3
19,16:3
19,17:3
19,18:7
19,20:7
19,21:7
19,25:3
20,2:7
20,3:7
20,4:7
20,5:10
20,6:7
20,8:7
20,14:10
20,15:10
20,16:10
20,17:10
20,22:7
20,23:7
20,24:7
20,25:10
20,26:7
20,27:7
20,28:10
21,2:7
21,3:7
21,4:7
21,5:10
21,6:7
21,8:7
21,14:10
21,15:10
21,16:10
21,17:10
21,19:7
21,22:7
21,23:7
21,24:7
21,25:10
21,26:7
21,27:7
21,28:10
22,5:3
22,7:7
22,9:7
22,10:7
22,11:7
22,12:7
22,13:7
22,14:3
22,15:3
22,16:3
22,17:3
22,18:7
22,20:7
22,21:7
22,25:3
22,28:3
23,5:3
23,7:7
23,9:7
23,10:7
23,11:7
23,12:7
23,13:7
23,14:3
23,15:3
23,16:3
23,17:3
23,18:7
23,20:7
23,21:7
23,25:3
23,28:3
24,5:3
24,7:7
24,9:7
24,10:7
24,11:7
24,12:7
24,13:7
24,14:3
24,15:3
24,16:3
24,17:3
24,18:7
24,20:7
24,21:7
24,25:3
25,2:3
25,3:3
25,4:3
25,6:3
25,7:10
25,8:3
25,9:10
25,10:10
25,11:10
25,12:10
25,13:10
25,18:10
25,19:3
25,20:10
25,21:10
25,22:3
25,23:3
25,26:3
25,27:3
26,5:3
26,7:7
26,9:7
26,10:7
26,11:7
26,12:7
26,13:7
26,14:3
26,15:3
26,16:3
26,17:3
26,18:7
26,20:7
26,21:7
26,25:3
27,5:3
27,7:7
27,9:7
27,10:7
27,11:7
27,12:7
27,13:7
27,14:3
27,15:3
27,16:3
27,17:3
27,18:7
27,20:7
27,21:7
27,25:3
27,28:3

<setup times backward>
2,5:3
2,14:3
2,15:3
2,16:3
2,25:3
3,5:3
3,14:3
3,15:3
3,16:3
3,17:3
3,25:3
4,5:3
4,14:3
4,15:3
4,16:3
4,17:3
4,25:3
6,5:3
6,14:3
6,15:3
6,16:3
6,17:3
6,25:3
7,1:7
7,2:7
7,3:7
7,4:7
7,5:10
7,6:7
7,8:7
7,14:10
7,15:10
7,16:10
7,17:10
7,19:7
7,22:7
7,23:7
7,24:7
7,25:10
7,26:7
7,27:7
8,5:3
8,17:3
8,25:3
9,1:7
9,2:7
9,3:7
9,4:7
9,5:10
9,6:7
9,8:7
9,17:10
9,19:7
9,22:7
9,23:7
9,24:7
9,25:10
9,26:7
9,27:7
10,1:7
10,2:7
10,3:7
10,4:7
10,5:10
10,6:7
10,8:7
10,17:10
10,19:7
10,22:7
10,23:7
10,24:7
10,25:10
10,26:7
10,27:7
11,1:7
11,2:7
11,3:7
11,4:7
11,5:10
11,6:7
11,8:7
11,14:10
11,16:10
11,17:10
11,19:7
11,22:7
11,23:7
11,24:7
11,25:10
11,26:7
11,27:7
12,1:7
12,2:7
12,3:7
12,4:7
12,5:10
12,6:7
12,8:7
12,15:10
12,17:10
12,19:7
12,22:7
12,23:7
12,24:7
12,25:10
12,26:7
12,27:7
13,1:7
13,2:7
13,3:7
13,4:7
13,5:10
13,6:7
13,8:7
13,15:10
13,17:10
13,19:7
13,22:7
13,23:7
13,24:7
13,25:10
13,26:7
13,27:7
18,1:7
18,2:7
18,3:7
18,4:7
18,5:10
18,6:7
18,8:7
18,14:10
18,15:10
18,16:10
18,17:10
18,19:7
18,22:7
18,23:7
18,24:7
18,25:10
18,26:7
18,27:7
19,5:3
19,14:3
19,15:3
19,16:3
19,17:3
19,25:3
20,1:7
20,2:7
20,3:7
20,4:7
20,5:10
20,6:7
20,8:7
20,14:10
20,15:10
20,16:10
20,17:10
20,19:7
20,22:7
20,23:7
20,24:7
20,25:10
20,26:7
20,27:7
21,1:7
21,2:7
21,3:7
21,4:7
21,5:10
21,6:7
21,8:7
21,14:10
21,15:10
21,16:10
21,17:10
21,19:7
21,22:7
21,23:7
21,24:7
21,25:10
21,26:7
21,27:7
22,5:3
22,14:3
22,15:3
22,16:3
22,17:3
22,25:3
23,5:3
23,14:3
23,15:3
23,16:3
23,17:3
23,25:3
24,5:3
24,14:3
24,15:3
24,16:3
24,17:3
26,5:3
26,14:3
26,15:3
26,16:3
26,17:3
26,25:3
27,5:3
27,14:3
27,15:3
27,16:3
27,17:3
27,25:3

<end>

<optimal SALBP-1 value>
3


<rand seed>
467321153

